10	5
0	5	2	4	3	1	5
1	4	9	8	7	6
2	2	6	7
3	4	6	9	10	8
4	5	6	10	9	7	8
5	4	10	9	7	8
6	1	11
7	1	11
8	1	11
9	1	11
10	1	11
11	0
0	0	0	0	0	0	0
1	3	3	2	0	5	3
2	4	4	3	0	0	4
3	1	0	5	0	0	4
4	3	0	0	2	3	0
5	1	0	3	5	4	0
6	9	1	0	0	0	0
7	1	3	0	3	5	0
8	6	1	0	0	4	0
9	1	0	0	0	0	3
10	6	3	1	0	2	4
11	0	0	0	0	0	0
4	6	5	6	6
